c case89pegase in MATPOWER https://matpower.org
p edge 89 206
e 1 2
e 1 3
e 1 20
e 1 51
e 1 53
e 1 57
e 1 58
e 1 64
e 1 65
e 1 66
e 3 4
e 3 6
e 4 5
e 4 7
e 4 8
e 4 9
e 6 13
e 6 15
e 8 11
e 9 10
e 10 11
e 10 12
e 10 57
e 10 58
e 10 59
e 10 60
e 10 61
e 11 12
e 11 58
e 11 59
e 11 60
e 11 61
e 13 14
e 14 21
e 14 22
e 15 16
e 15 19
e 15 20
e 15 23
e 15 24
e 16 17
e 17 18
e 18 19
e 18 22
e 18 23
e 18 24
e 18 25
e 20 21
e 21 57
e 21 58
e 22 23
e 22 24
e 23 24
e 23 25
e 23 26
e 23 27
e 23 29
e 23 30
e 24 25
e 25 26
e 25 27
e 25 29
e 25 30
e 25 47
e 25 50
e 26 27
e 27 28
e 27 29
e 27 30
e 27 31
e 29 30
e 29 39
e 29 42
e 30 42
e 30 43
e 30 50
e 30 55
e 30 56
e 30 57
e 30 58
e 30 59
e 30 60
e 30 62
e 30 63
e 31 32
e 31 33
e 33 34
e 33 35
e 34 36
e 34 37
e 34 38
e 34 40
e 34 48
e 34 74
e 34 75
e 34 76
e 34 81
e 34 82
e 35 39
e 35 41
e 41 43
e 41 45
e 41 50
e 41 51
e 41 53
e 42 43
e 42 44
e 42 49
e 44 45
e 45 46
e 46 47
e 46 48
e 49 50
e 50 55
e 50 56
e 50 57
e 50 58
e 50 59
e 50 60
e 50 62
e 50 63
e 51 52
e 52 56
e 53 54
e 54 55
e 55 57
e 55 58
e 55 60
e 55 56
e 55 59
e 55 61
e 55 62
e 55 63
e 55 68
e 55 69
e 56 57
e 56 58
e 56 60
e 56 59
e 56 61
e 56 62
e 56 63
e 56 68
e 56 69
e 56 70
e 57 58
e 57 59
e 57 60
e 57 61
e 57 62
e 58 59
e 58 60
e 58 61
e 59 60
e 59 66
e 59 61
e 59 62
e 59 63
e 59 68
e 60 61
e 60 62
e 60 63
e 60 64
e 61 62
e 61 63
e 61 65
e 61 67
e 61 68
e 61 69
e 61 70
e 62 63
e 62 68
e 62 69
e 62 70
e 62 71
e 62 72
e 63 68
e 63 69
e 63 70
e 63 73
e 64 65
e 65 71
e 68 69
e 68 70
e 68 76
e 68 77
e 69 70
e 69 77
e 69 78
e 70 75
e 70 77
e 70 79
e 71 72
e 71 85
e 73 74
e 77 79
e 77 81
e 78 82
e 79 80
e 80 81
e 81 83
e 81 84
e 82 88
e 85 86
e 86 87
e 88 89
l 37
t 5 89
